
Value of objective function: 1.04906e-311

Actual values of the variables:

Actual values of the constraints:
R1                   1.04906e-311
R2                              0
R3                              0
R4                              0
R5                              0
R6                              0
R7                              0
R8                              0
